# Objective value = 1.2635550000000007e+04
I_0_0 5006
I_0_1 6.3319999999999955e+03
I_0_2 5.4320000000000009e+03
I_0_3 7.3319999999999973e+03
I_1_0 64
I_1_1 1.3464784842653899e-12
I_1_2 64
I_1_3 0
I_2_0 99
I_2_1 0
I_2_2 99
I_2_3 0
I_3_0 83
I_3_1 0
I_3_2 83
I_3_3 0
I_4_0 178
I_4_1 8.9000000000002288e+01
I_4_2 1.7800000000000003e+02
I_4_3 8.9000000000000028e+01
I_5_0 182
I_5_1 9.1000000000001265e+01
I_5_2 1.8199999999999758e+02
I_5_3 9.0999999999997584e+01
I_6_0 104
I_6_1 5.1999999999999524e+01
I_6_2 1.0399999999999997e+02
I_6_3 5.1999999999999972e+01
I_7_0 168
I_7_1 168
I_7_2 84
I_7_3 0
I_8_0 45
I_8_1 0
I_8_2 45
I_8_3 0
I_9_0 68
I_9_1 68
I_9_2 34
I_9_3 0
I_10_0 134
I_10_1 67
I_10_2 134
I_10_3 67
I_11_0 110
I_11_1 110
I_11_2 55
I_11_3 0
I_12_0 17
I_12_1 0
I_12_2 17
I_12_3 0
I_13_0 88
I_13_1 88
I_13_2 88
I_13_3 0
I_14_0 25
I_14_1 0
I_14_2 25
I_14_3 0
I_15_0 112
I_15_1 5.5999999999998344e+01
I_15_2 1.1200000000000169e+02
I_15_3 5.6000000000001691e+01
I_16_0 174
I_16_1 87
I_16_2 174
I_16_3 8.7000000000000014e+01
I_17_0 176
I_17_1 8.8000000000000171e+01
I_17_2 176
I_17_3 88
I_18_0 66
I_18_1 66
I_18_2 3.2999999999999375e+01
I_18_3 -6.2527760746888816e-13
I_19_0 27
I_19_1 -2.5179858198498550e-13
I_19_2 27
I_19_3 0
I_20_0 198
I_20_1 198
I_20_2 99
I_20_3 0
I_21_0 53
I_21_1 0
I_21_2 53
I_21_3 0
I_22_0 106
I_22_1 1.0599999999999868e+02
I_22_2 5.3000000000001364e+01
I_22_3 1.3642420526593924e-12
I_23_0 112
I_23_1 5.6000000000000426e+01
I_23_2 1.1199999999999956e+02
I_23_3 5.5999999999999559e+01
I_24_0 136
I_24_1 136
I_24_2 68
I_24_3 0
I_25_0 94
I_25_1 4.7000000000000355e+01
I_25_2 9.3999999999999631e+01
I_25_3 4.6999999999999631e+01
I_26_0 60
I_26_1 6.0000000000000746e+01
I_26_2 60
I_26_3 0
I_27_0 118
I_27_1 59
I_27_2 118
I_27_3 59
I_28_0 176
I_28_1 8.7999999999998380e+01
I_28_2 176
I_28_3 88
I_29_0 82
I_29_1 6.1906035853098729e-13
I_29_2 82
I_29_3 0
I_30_0 51
I_30_1 2.0355384044989933e-12
I_30_2 51
I_30_3 0
q_1_0 1.3464784842653899e-12
q_1_1 1.2799999999999865e+02
q_1_2 0
q_2_0 0
q_2_1 198
q_2_2 0
q_3_0 0
q_3_1 166
q_3_2 0
q_4_0 2.2825075163268593e-12
q_4_1 1.7799999999999795e+02
q_4_2 0
q_5_0 1.26793020527316e-12
q_5_1 1.8199999999999744e+02
q_5_2 0
q_6_0 -4.7339909770016675e-13
q_6_1 104
q_6_2 0
q_7_0 84
q_7_1 0
q_7_2 0
q_8_0 0
q_8_1 90
q_8_2 0
q_9_0 34
q_9_1 0
q_9_2 0
q_10_0 0
q_10_1 134
q_10_2 0
q_11_0 55
q_11_1 0
q_11_2 0
q_12_0 0
q_12_1 34
q_12_2 0
q_13_0 88
q_13_1 88
q_13_2 0
q_14_0 0
q_14_1 50
q_14_2 0
q_15_0 -1.6568968419505836e-12
q_15_1 1.1200000000000330e+02
q_15_2 0
q_16_0 0
q_16_1 174
q_16_2 0
q_17_0 1.6364687382974807e-13
q_17_1 1.7599999999999983e+02
q_17_2 0
q_18_0 33
q_18_1 -6.2527760746888816e-13
q_18_2 0
q_19_0 -2.5179858198498550e-13
q_19_1 5.4000000000000256e+01
q_19_2 0
q_20_0 99
q_20_1 0
q_20_2 0
q_21_0 0
q_21_1 106
q_21_2 0
q_22_0 5.2999999999998678e+01
q_22_1 2.8421709430404007e-12
q_22_2 0
q_23_0 4.2277292777725961e-13
q_23_1 1.1199999999999912e+02
q_23_2 0
q_24_0 68
q_24_1 0
q_24_2 0
q_25_0 3.5743630277806915e-13
q_25_1 9.3999999999999261e+01
q_25_2 0
q_26_0 6.0000000000000746e+01
q_26_1 5.9999999999999254e+01
q_26_2 0
q_27_0 0
q_27_1 118
q_27_2 0
q_28_0 -1.6218137943724287e-12
q_28_1 1.7600000000000171e+02
q_28_2 0
q_29_0 6.1906035853098729e-13
q_29_1 1.6399999999999937e+02
q_29_2 0
q_30_0 2.0355384044989933e-12
q_30_1 1.0199999999999797e+02
q_30_2 0
y_0_0 1
y_0_1 1
y_0_2 0
y_1_0 2.1038726316646716e-14
y_1_1 1
y_1_2 0
y_2_0 0
y_2_1 1
y_2_2 0
y_3_0 0
y_3_1 1
y_3_2 0
y_4_0 2.5646151868841116e-14
y_4_1 1
y_4_2 0
y_5_0 1.3933298959045715e-14
y_5_1 9.9999999999998623e-01
y_5_2 0
y_6_0 -9.1038288019262836e-15
y_6_1 1.0000000000000111e+00
y_6_2 0
y_7_0 1
y_7_1 0
y_7_2 0
y_8_0 0
y_8_1 1
y_8_2 0
y_9_0 1
y_9_1 0
y_9_2 0
y_10_0 0
y_10_1 1
y_10_2 0
y_11_0 1
y_11_1 0
y_11_2 0
y_12_0 0
y_12_1 1
y_12_2 0
y_13_0 1
y_13_1 1
y_13_2 0
y_14_0 0
y_14_1 1
y_14_2 0
y_15_0 -2.9587443606260422e-14
y_15_1 1.00000000000003
y_15_2 0
y_16_0 0
y_16_1 1
y_16_2 0
y_17_0 1.8596235662471372e-15
y_17_1 1
y_17_2 0
y_18_0 1
y_18_1 -9.5479180117763462e-15
y_18_2 0
y_19_0 -9.3258734068513149e-15
y_19_1 1
y_19_2 0
y_20_0 1
y_20_1 0
y_20_2 0
y_21_0 0
y_21_1 1
y_21_2 0
y_22_0 9.9999999999997513e-01
y_22_1 0
y_22_2 0
y_23_0 7.5495165674510645e-15
y_23_1 9.9999999999999467e-01
y_23_2 0
y_24_0 1
y_24_1 0
y_24_2 0
y_25_0 7.6050277186823223e-15
y_25_1 9.9999999999999467e-01
y_25_2 0
y_26_0 1.0000000000000124e+00
y_26_1 1
y_26_2 0
y_27_0 0
y_27_1 1
y_27_2 0
y_28_0 -1.84297022087776e-14
y_28_1 1
y_28_2 0
y_29_0 7.5495165674510645e-15
y_29_1 1
y_29_2 0
y_30_0 3.9912517735274378e-14
y_30_1 1
y_30_2 0
x_0_1_0 0
x_0_1_1 0
x_0_1_2 0
x_0_2_0 0
x_0_2_1 9.9999999999995826e-01
x_0_2_2 0
x_0_3_0 0
x_0_3_1 0
x_0_3_2 0
x_0_4_0 4.8738790781044372e-14
x_0_4_1 1.0000000000000444e+00
x_0_4_2 0
x_0_5_0 0
x_0_5_1 0
x_0_5_2 0
x_0_6_0 0
x_0_6_1 0
x_0_6_2 0
x_0_7_0 0
x_0_7_1 0
x_0_7_2 0
x_0_8_0 0
x_0_8_1 0
x_0_8_2 0
x_0_9_0 0
x_0_9_1 0
x_0_9_2 0
x_0_10_0 0
x_0_10_1 0
x_0_10_2 0
x_0_11_0 -3.1891156382357622e-14
x_0_11_1 0
x_0_11_2 0
x_0_12_0 0
x_0_12_1 0
x_0_12_2 0
x_0_13_0 9.9999999999999867e-01
x_0_13_1 -1.4432899320127035e-14
x_0_13_2 0
x_0_14_0 0
x_0_14_1 0
x_0_14_2 0
x_0_15_0 0
x_0_15_1 1.4432899320127035e-14
x_0_15_2 0
x_0_16_0 0
x_0_16_1 0
x_0_16_2 0
x_0_17_0 0
x_0_17_1 0
x_0_17_2 0
x_0_18_0 0
x_0_18_1 0
x_0_18_2 0
x_0_19_0 0
x_0_19_1 0
x_0_19_2 0
x_0_20_0 0
x_0_20_1 0
x_0_20_2 0
x_0_21_0 0
x_0_21_1 0
x_0_21_2 0
x_0_22_0 -3.58046925441613e-15
x_0_22_1 0
x_0_22_2 0
x_0_23_0 0
x_0_23_1 0
x_0_23_2 0
x_0_24_0 0
x_0_24_1 0
x_0_24_2 0
x_0_25_0 0
x_0_25_1 0
x_0_25_2 0
x_0_26_0 9.9999999999998757e-01
x_0_26_1 0
x_0_26_2 0
x_0_27_0 0
x_0_27_1 0
x_0_27_2 0
x_0_28_0 0
x_0_28_1 0
x_0_28_2 0
x_0_29_0 0
x_0_29_1 0
x_0_29_2 0
x_0_30_0 0
x_0_30_1 0
x_0_30_2 0
x_1_2_0 0
x_1_2_1 0
x_1_2_2 0
x_1_3_0 2.1038726316646716e-14
x_1_3_1 1
x_1_3_2 0
x_1_4_0 0
x_1_4_1 0
x_1_4_2 0
x_1_5_0 2.1038726316646716e-14
x_1_5_1 -2.1926904736346842e-14
x_1_5_2 0
x_1_6_0 0
x_1_6_1 0
x_1_6_2 0
x_1_7_0 0
x_1_7_1 0
x_1_7_2 0
x_1_8_0 0
x_1_8_1 0
x_1_8_2 0
x_1_9_0 0
x_1_9_1 0
x_1_9_2 0
x_1_10_0 0
x_1_10_1 0
x_1_10_2 0
x_1_11_0 0
x_1_11_1 0
x_1_11_2 0
x_1_12_0 0
x_1_12_1 0
x_1_12_2 0
x_1_13_0 0
x_1_13_1 0
x_1_13_2 0
x_1_14_0 0
x_1_14_1 1.0000000000000220e+00
x_1_14_2 0
x_1_15_0 0
x_1_15_1 0
x_1_15_2 0
x_1_16_0 0
x_1_16_1 0
x_1_16_2 0
x_1_17_0 0
x_1_17_1 0
x_1_17_2 0
x_1_18_0 0
x_1_18_1 0
x_1_18_2 0
x_1_19_0 0
x_1_19_1 0
x_1_19_2 0
x_1_20_0 0
x_1_20_1 0
x_1_20_2 0
x_1_21_0 0
x_1_21_1 0
x_1_21_2 0
x_1_22_0 0
x_1_22_1 0
x_1_22_2 0
x_1_23_0 0
x_1_23_1 0
x_1_23_2 0
x_1_24_0 0
x_1_24_1 0
x_1_24_2 0
x_1_25_0 0
x_1_25_1 0
x_1_25_2 0
x_1_26_0 0
x_1_26_1 0
x_1_26_2 0
x_1_27_0 0
x_1_27_1 0
x_1_27_2 0
x_1_28_0 0
x_1_28_1 0
x_1_28_2 0
x_1_29_0 0
x_1_29_1 0
x_1_29_2 0
x_1_30_0 0
x_1_30_1 0
x_1_30_2 0
x_2_3_0 0
x_2_3_1 0
x_2_3_2 0
x_2_4_0 0
x_2_4_1 0
x_2_4_2 0
x_2_5_0 0
x_2_5_1 0
x_2_5_2 0
x_2_6_0 0
x_2_6_1 0
x_2_6_2 0
x_2_7_0 0
x_2_7_1 0
x_2_7_2 0
x_2_8_0 0
x_2_8_1 0
x_2_8_2 0
x_2_9_0 0
x_2_9_1 0
x_2_9_2 0
x_2_10_0 0
x_2_10_1 0
x_2_10_2 0
x_2_11_0 0
x_2_11_1 0
x_2_11_2 0
x_2_12_0 0
x_2_12_1 0
x_2_12_2 0
x_2_13_0 0
x_2_13_1 1.0000000000000420e+00
x_2_13_2 0
x_2_14_0 0
x_2_14_1 0
x_2_14_2 0
x_2_15_0 0
x_2_15_1 0
x_2_15_2 0
x_2_16_0 0
x_2_16_1 0
x_2_16_2 0
x_2_17_0 0
x_2_17_1 0
x_2_17_2 0
x_2_18_0 0
x_2_18_1 0
x_2_18_2 0
x_2_19_0 0
x_2_19_1 0
x_2_19_2 0
x_2_20_0 0
x_2_20_1 0
x_2_20_2 0
x_2_21_0 0
x_2_21_1 0
x_2_21_2 0
x_2_22_0 0
x_2_22_1 0
x_2_22_2 0
x_2_23_0 0
x_2_23_1 0
x_2_23_2 0
x_2_24_0 0
x_2_24_1 0
x_2_24_2 0
x_2_25_0 0
x_2_25_1 0
x_2_25_2 0
x_2_26_0 0
x_2_26_1 0
x_2_26_2 0
x_2_27_0 0
x_2_27_1 0
x_2_27_2 0
x_2_28_0 0
x_2_28_1 0
x_2_28_2 0
x_2_29_0 0
x_2_29_1 0
x_2_29_2 0
x_2_30_0 0
x_2_30_1 0
x_2_30_2 0
x_3_4_0 0
x_3_4_1 0
x_3_4_2 0
x_3_5_0 4.4408920985006262e-16
x_3_5_1 1.0000000000000082e+00
x_3_5_2 0
x_3_6_0 0
x_3_6_1 0
x_3_6_2 0
x_3_7_0 0
x_3_7_1 0
x_3_7_2 0
x_3_8_0 0
x_3_8_1 0
x_3_8_2 0
x_3_9_0 0
x_3_9_1 0
x_3_9_2 0
x_3_10_0 0
x_3_10_1 0
x_3_10_2 0
x_3_11_0 0
x_3_11_1 0
x_3_11_2 0
x_3_12_0 0
x_3_12_1 0
x_3_12_2 0
x_3_13_0 0
x_3_13_1 0
x_3_13_2 0
x_3_14_0 0
x_3_14_1 0
x_3_14_2 0
x_3_15_0 0
x_3_15_1 0
x_3_15_2 0
x_3_16_0 0
x_3_16_1 -7.9658502016854982e-15
x_3_16_2 0
x_3_17_0 0
x_3_17_1 0
x_3_17_2 0
x_3_18_0 0
x_3_18_1 0
x_3_18_2 0
x_3_19_0 0
x_3_19_1 0
x_3_19_2 0
x_3_20_0 0
x_3_20_1 0
x_3_20_2 0
x_3_21_0 0
x_3_21_1 0
x_3_21_2 0
x_3_22_0 0
x_3_22_1 0
x_3_22_2 0
x_3_23_0 0
x_3_23_1 0
x_3_23_2 0
x_3_24_0 0
x_3_24_1 0
x_3_24_2 0
x_3_25_0 0
x_3_25_1 0
x_3_25_2 0
x_3_26_0 0
x_3_26_1 0
x_3_26_2 0
x_3_27_0 0
x_3_27_1 0
x_3_27_2 0
x_3_28_0 0
x_3_28_1 0
x_3_28_2 0
x_3_29_0 0
x_3_29_1 0
x_3_29_2 0
x_3_30_0 0
x_3_30_1 0
x_3_30_2 0
x_4_5_0 0
x_4_5_1 0
x_4_5_2 0
x_4_6_0 0
x_4_6_1 0
x_4_6_2 0
x_4_7_0 0
x_4_7_1 0
x_4_7_2 0
x_4_8_0 0
x_4_8_1 0
x_4_8_2 0
x_4_9_0 0
x_4_9_1 0
x_4_9_2 0
x_4_10_0 0
x_4_10_1 0
x_4_10_2 0
x_4_11_0 0
x_4_11_1 0
x_4_11_2 0
x_4_12_0 0
x_4_12_1 0
x_4_12_2 0
x_4_13_0 0
x_4_13_1 -3.0586644328423063e-14
x_4_13_2 0
x_4_14_0 0
x_4_14_1 0
x_4_14_2 0
x_4_15_0 0
x_4_15_1 1
x_4_15_2 0
x_4_16_0 0
x_4_16_1 0
x_4_16_2 0
x_4_17_0 0
x_4_17_1 0
x_4_17_2 0
x_4_18_0 0
x_4_18_1 0
x_4_18_2 0
x_4_19_0 0
x_4_19_1 0
x_4_19_2 0
x_4_20_0 0
x_4_20_1 0
x_4_20_2 0
x_4_21_0 0
x_4_21_1 0
x_4_21_2 0
x_4_22_0 0
x_4_22_1 0
x_4_22_2 0
x_4_23_0 0
x_4_23_1 0
x_4_23_2 0
x_4_24_0 0
x_4_24_1 0
x_4_24_2 0
x_4_25_0 0
x_4_25_1 0
x_4_25_2 0
x_4_26_0 0
x_4_26_1 0
x_4_26_2 0
x_4_27_0 0
x_4_27_1 0
x_4_27_2 0
x_4_28_0 0
x_4_28_1 -1.3988810110276972e-14
x_4_28_2 0
x_4_29_0 0
x_4_29_1 0
x_4_29_2 0
x_4_30_0 0
x_4_30_1 0
x_4_30_2 0
x_5_6_0 0
x_5_6_1 0
x_5_6_2 0
x_5_7_0 0
x_5_7_1 0
x_5_7_2 0
x_5_8_0 0
x_5_8_1 0
x_5_8_2 0
x_5_9_0 1.4044321261508230e-14
x_5_9_1 0
x_5_9_2 0
x_5_10_0 0
x_5_10_1 0
x_5_10_2 0
x_5_11_0 0
x_5_11_1 0
x_5_11_2 0
x_5_12_0 0
x_5_12_1 0
x_5_12_2 0
x_5_13_0 0
x_5_13_1 0
x_5_13_2 0
x_5_14_0 0
x_5_14_1 0
x_5_14_2 0
x_5_15_0 0
x_5_15_1 0
x_5_15_2 0
x_5_16_0 0
x_5_16_1 1.0000000000000073e+00
x_5_16_2 0
x_5_17_0 0
x_5_17_1 0
x_5_17_2 0
x_5_18_0 1.3655743202889425e-14
x_5_18_1 -2.2315482794965646e-14
x_5_18_2 0
x_5_19_0 0
x_5_19_1 0
x_5_19_2 0
x_5_20_0 0
x_5_20_1 0
x_5_20_2 0
x_5_21_0 0
x_5_21_1 0
x_5_21_2 0
x_5_22_0 0
x_5_22_1 0
x_5_22_2 0
x_5_23_0 0
x_5_23_1 0
x_5_23_2 0
x_5_24_0 0
x_5_24_1 0
x_5_24_2 0
x_5_25_0 0
x_5_25_1 0
x_5_25_2 0
x_5_26_0 0
x_5_26_1 0
x_5_26_2 0
x_5_27_0 0
x_5_27_1 0
x_5_27_2 0
x_5_28_0 0
x_5_28_1 0
x_5_28_2 0
x_5_29_0 0
x_5_29_1 0
x_5_29_2 0
x_5_30_0 0
x_5_30_1 0
x_5_30_2 0
x_6_7_0 0
x_6_7_1 0
x_6_7_2 0
x_6_8_0 0
x_6_8_1 1.0000000000000115e+00
x_6_8_2 0
x_6_9_0 0
x_6_9_1 0
x_6_9_2 0
x_6_10_0 0
x_6_10_1 0
x_6_10_2 0
x_6_11_0 0
x_6_11_1 0
x_6_11_2 0
x_6_12_0 0
x_6_12_1 0
x_6_12_2 0
x_6_13_0 0
x_6_13_1 0
x_6_13_2 0
x_6_14_0 0
x_6_14_1 0
x_6_14_2 0
x_6_15_0 0
x_6_15_1 0
x_6_15_2 0
x_6_16_0 0
x_6_16_1 0
x_6_16_2 0
x_6_17_0 0
x_6_17_1 0
x_6_17_2 0
x_6_18_0 0
x_6_18_1 0
x_6_18_2 0
x_6_19_0 -2.8421709430404007e-14
x_6_19_1 1.0000000000000102e+00
x_6_19_2 0
x_6_20_0 0
x_6_20_1 0
x_6_20_2 0
x_6_21_0 0
x_6_21_1 0
x_6_21_2 0
x_6_22_0 0
x_6_22_1 0
x_6_22_2 0
x_6_23_0 9.71445146547012e-15
x_6_23_1 0
x_6_23_2 0
x_6_24_0 0
x_6_24_1 0
x_6_24_2 0
x_6_25_0 0
x_6_25_1 0
x_6_25_2 0
x_6_26_0 0
x_6_26_1 0
x_6_26_2 0
x_6_27_0 0
x_6_27_1 0
x_6_27_2 0
x_6_28_0 0
x_6_28_1 0
x_6_28_2 0
x_6_29_0 0
x_6_29_1 0
x_6_29_2 0
x_6_30_0 0
x_6_30_1 0
x_6_30_2 0
x_7_8_0 0
x_7_8_1 0
x_7_8_2 0
x_7_9_0 1
x_7_9_1 0
x_7_9_2 0
x_7_10_0 0
x_7_10_1 0
x_7_10_2 0
x_7_11_0 1
x_7_11_1 0
x_7_11_2 0
x_7_12_0 0
x_7_12_1 0
x_7_12_2 0
x_7_13_0 0
x_7_13_1 0
x_7_13_2 0
x_7_14_0 0
x_7_14_1 0
x_7_14_2 0
x_7_15_0 0
x_7_15_1 0
x_7_15_2 0
x_7_16_0 0
x_7_16_1 0
x_7_16_2 0
x_7_17_0 0
x_7_17_1 0
x_7_17_2 0
x_7_18_0 0
x_7_18_1 0
x_7_18_2 0
x_7_19_0 0
x_7_19_1 0
x_7_19_2 0
x_7_20_0 0
x_7_20_1 0
x_7_20_2 0
x_7_21_0 0
x_7_21_1 0
x_7_21_2 0
x_7_22_0 0
x_7_22_1 0
x_7_22_2 0
x_7_23_0 0
x_7_23_1 0
x_7_23_2 0
x_7_24_0 0
x_7_24_1 0
x_7_24_2 0
x_7_25_0 0
x_7_25_1 0
x_7_25_2 0
x_7_26_0 0
x_7_26_1 0
x_7_26_2 0
x_7_27_0 0
x_7_27_1 0
x_7_27_2 0
x_7_28_0 0
x_7_28_1 0
x_7_28_2 0
x_7_29_0 0
x_7_29_1 0
x_7_29_2 0
x_7_30_0 0
x_7_30_1 0
x_7_30_2 0
x_8_9_0 0
x_8_9_1 0
x_8_9_2 0
x_8_10_0 0
x_8_10_1 -9.5479180117763462e-15
x_8_10_2 0
x_8_11_0 0
x_8_11_1 0
x_8_11_2 0
x_8_12_0 0
x_8_12_1 1
x_8_12_2 0
x_8_13_0 0
x_8_13_1 0
x_8_13_2 0
x_8_14_0 0
x_8_14_1 0
x_8_14_2 0
x_8_15_0 0
x_8_15_1 0
x_8_15_2 0
x_8_16_0 0
x_8_16_1 0
x_8_16_2 0
x_8_17_0 0
x_8_17_1 0
x_8_17_2 0
x_8_18_0 0
x_8_18_1 0
x_8_18_2 0
x_8_19_0 0
x_8_19_1 0
x_8_19_2 0
x_8_20_0 0
x_8_20_1 0
x_8_20_2 0
x_8_21_0 0
x_8_21_1 0
x_8_21_2 0
x_8_22_0 0
x_8_22_1 0
x_8_22_2 0
x_8_23_0 0
x_8_23_1 0
x_8_23_2 0
x_8_24_0 0
x_8_24_1 0
x_8_24_2 0
x_8_25_0 0
x_8_25_1 0
x_8_25_2 0
x_8_26_0 0
x_8_26_1 0
x_8_26_2 0
x_8_27_0 0
x_8_27_1 0
x_8_27_2 0
x_8_28_0 0
x_8_28_1 0
x_8_28_2 0
x_8_29_0 0
x_8_29_1 0
x_8_29_2 0
x_8_30_0 0
x_8_30_1 0
x_8_30_2 0
x_9_10_0 0
x_9_10_1 0
x_9_10_2 0
x_9_11_0 0
x_9_11_1 0
x_9_11_2 0
x_9_12_0 0
x_9_12_1 0
x_9_12_2 0
x_9_13_0 0
x_9_13_1 0
x_9_13_2 0
x_9_14_0 0
x_9_14_1 0
x_9_14_2 0
x_9_15_0 0
x_9_15_1 0
x_9_15_2 0
x_9_16_0 0
x_9_16_1 0
x_9_16_2 0
x_9_17_0 0
x_9_17_1 0
x_9_17_2 0
x_9_18_0 1
x_9_18_1 0
x_9_18_2 0
x_9_19_0 0
x_9_19_1 0
x_9_19_2 0
x_9_20_0 -1.4321877017664519e-14
x_9_20_1 0
x_9_20_2 0
x_9_21_0 0
x_9_21_1 0
x_9_21_2 0
x_9_22_0 0
x_9_22_1 0
x_9_22_2 0
x_9_23_0 0
x_9_23_1 0
x_9_23_2 0
x_9_24_0 0
x_9_24_1 0
x_9_24_2 0
x_9_25_0 0
x_9_25_1 0
x_9_25_2 0
x_9_26_0 0
x_9_26_1 0
x_9_26_2 0
x_9_27_0 0
x_9_27_1 0
x_9_27_2 0
x_9_28_0 0
x_9_28_1 0
x_9_28_2 0
x_9_29_0 0
x_9_29_1 0
x_9_29_2 0
x_9_30_0 0
x_9_30_1 0
x_9_30_2 0
x_10_11_0 0
x_10_11_1 0
x_10_11_2 0
x_10_12_0 0
x_10_12_1 1.0000000000000098e+00
x_10_12_2 0
x_10_13_0 0
x_10_13_1 0
x_10_13_2 0
x_10_14_0 0
x_10_14_1 0
x_10_14_2 0
x_10_15_0 0
x_10_15_1 0
x_10_15_2 0
x_10_16_0 0
x_10_16_1 0
x_10_16_2 0
x_10_17_0 0
x_10_17_1 0
x_10_17_2 0
x_10_18_0 0
x_10_18_1 0
x_10_18_2 0
x_10_19_0 0
x_10_19_1 0
x_10_19_2 0
x_10_20_0 0
x_10_20_1 0
x_10_20_2 0
x_10_21_0 0
x_10_21_1 1
x_10_21_2 0
x_10_22_0 0
x_10_22_1 0
x_10_22_2 0
x_10_23_0 0
x_10_23_1 0
x_10_23_2 0
x_10_24_0 0
x_10_24_1 0
x_10_24_2 0
x_10_25_0 0
x_10_25_1 0
x_10_25_2 0
x_10_26_0 0
x_10_26_1 0
x_10_26_2 0
x_10_27_0 0
x_10_27_1 0
x_10_27_2 0
x_10_28_0 0
x_10_28_1 0
x_10_28_2 0
x_10_29_0 0
x_10_29_1 0
x_10_29_2 0
x_10_30_0 0
x_10_30_1 0
x_10_30_2 0
x_11_12_0 0
x_11_12_1 0
x_11_12_2 0
x_11_13_0 1.0000000000000011e+00
x_11_13_1 0
x_11_13_2 0
x_11_14_0 0
x_11_14_1 0
x_11_14_2 0
x_11_15_0 0
x_11_15_1 0
x_11_15_2 0
x_11_16_0 0
x_11_16_1 0
x_11_16_2 0
x_11_17_0 0
x_11_17_1 0
x_11_17_2 0
x_11_18_0 0
x_11_18_1 0
x_11_18_2 0
x_11_19_0 0
x_11_19_1 0
x_11_19_2 0
x_11_20_0 -1.4543921622589551e-14
x_11_20_1 0
x_11_20_2 0
x_11_21_0 0
x_11_21_1 0
x_11_21_2 0
x_11_22_0 0
x_11_22_1 0
x_11_22_2 0
x_11_23_0 0
x_11_23_1 0
x_11_23_2 0
x_11_24_0 3.4527936065842368e-14
x_11_24_1 0
x_11_24_2 0
x_11_25_0 0
x_11_25_1 0
x_11_25_2 0
x_11_26_0 0
x_11_26_1 0
x_11_26_2 0
x_11_27_0 0
x_11_27_1 0
x_11_27_2 0
x_11_28_0 0
x_11_28_1 0
x_11_28_2 0
x_11_29_0 0
x_11_29_1 0
x_11_29_2 0
x_11_30_0 0
x_11_30_1 0
x_11_30_2 0
x_12_13_0 0
x_12_13_1 0
x_12_13_2 0
x_12_14_0 0
x_12_14_1 0
x_12_14_2 0
x_12_15_0 0
x_12_15_1 0
x_12_15_2 0
x_12_16_0 0
x_12_16_1 0
x_12_16_2 0
x_12_17_0 0
x_12_17_1 0
x_12_17_2 0
x_12_18_0 0
x_12_18_1 0
x_12_18_2 0
x_12_19_0 0
x_12_19_1 0
x_12_19_2 0
x_12_20_0 0
x_12_20_1 0
x_12_20_2 0
x_12_21_0 0
x_12_21_1 0
x_12_21_2 0
x_12_22_0 0
x_12_22_1 0
x_12_22_2 0
x_12_23_0 0
x_12_23_1 -9.5479180117763462e-15
x_12_23_2 0
x_12_24_0 0
x_12_24_1 0
x_12_24_2 0
x_12_25_0 0
x_12_25_1 0
x_12_25_2 0
x_12_26_0 0
x_12_26_1 0
x_12_26_2 0
x_12_27_0 0
x_12_27_1 0
x_12_27_2 0
x_12_28_0 0
x_12_28_1 0
x_12_28_2 0
x_12_29_0 0
x_12_29_1 0
x_12_29_2 0
x_12_30_0 0
x_12_30_1 0
x_12_30_2 0
x_13_14_0 0
x_13_14_1 0
x_13_14_2 0
x_13_15_0 0
x_13_15_1 0
x_13_15_2 0
x_13_16_0 0
x_13_16_1 0
x_13_16_2 0
x_13_17_0 0
x_13_17_1 0
x_13_17_2 0
x_13_18_0 0
x_13_18_1 3.1086244689504383e-15
x_13_18_2 0
x_13_19_0 0
x_13_19_1 0
x_13_19_2 0
x_13_20_0 0
x_13_20_1 0
x_13_20_2 0
x_13_21_0 0
x_13_21_1 0
x_13_21_2 0
x_13_22_0 0
x_13_22_1 0
x_13_22_2 0
x_13_23_0 0
x_13_23_1 0
x_13_23_2 0
x_13_24_0 0
x_13_24_1 0
x_13_24_2 0
x_13_25_0 0
x_13_25_1 0
x_13_25_2 0
x_13_26_0 0
x_13_26_1 1.0000000000000016e+00
x_13_26_2 0
x_13_27_0 0
x_13_27_1 0
x_13_27_2 0
x_13_28_0 0
x_13_28_1 0
x_13_28_2 0
x_13_29_0 0
x_13_29_1 0
x_13_29_2 0
x_13_30_0 0
x_13_30_1 0
x_13_30_2 0
x_14_15_0 0
x_14_15_1 0
x_14_15_2 0
x_14_16_0 0
x_14_16_1 -2.1926904736346842e-14
x_14_16_2 0
x_14_17_0 0
x_14_17_1 0
x_14_17_2 0
x_14_18_0 0
x_14_18_1 0
x_14_18_2 0
x_14_19_0 0
x_14_19_1 0
x_14_19_2 0
x_14_20_0 0
x_14_20_1 0
x_14_20_2 0
x_14_21_0 0
x_14_21_1 1.0000000000000222e+00
x_14_21_2 0
x_14_22_0 0
x_14_22_1 0
x_14_22_2 0
x_14_23_0 0
x_14_23_1 0
x_14_23_2 0
x_14_24_0 0
x_14_24_1 0
x_14_24_2 0
x_14_25_0 0
x_14_25_1 0
x_14_25_2 0
x_14_26_0 0
x_14_26_1 0
x_14_26_2 0
x_14_27_0 0
x_14_27_1 -2.19824158875781e-14
x_14_27_2 0
x_14_28_0 0
x_14_28_1 0
x_14_28_2 0
x_14_29_0 0
x_14_29_1 0
x_14_29_2 0
x_14_30_0 0
x_14_30_1 0
x_14_30_2 0
x_15_16_0 0
x_15_16_1 0
x_15_16_2 0
x_15_17_0 1.8596235662471372e-15
x_15_17_1 1.0000000000000304e+00
x_15_17_2 0
x_15_18_0 0
x_15_18_1 0
x_15_18_2 0
x_15_19_0 0
x_15_19_1 0
x_15_19_2 0
x_15_20_0 0
x_15_20_1 0
x_15_20_2 0
x_15_21_0 0
x_15_21_1 0
x_15_21_2 0
x_15_22_0 0
x_15_22_1 0
x_15_22_2 0
x_15_23_0 0
x_15_23_1 0
x_15_23_2 0
x_15_24_0 0
x_15_24_1 0
x_15_24_2 0
x_15_25_0 0
x_15_25_1 0
x_15_25_2 0
x_15_26_0 0
x_15_26_1 0
x_15_26_2 0
x_15_27_0 0
x_15_27_1 0
x_15_27_2 0
x_15_28_0 -2.55351295663786e-14
x_15_28_1 0
x_15_28_2 0
x_15_29_0 0
x_15_29_1 0
x_15_29_2 0
x_15_30_0 0
x_15_30_1 1.5321077739827160e-14
x_15_30_2 0
x_16_17_0 0
x_16_17_1 0
x_16_17_2 0
x_16_18_0 0
x_16_18_1 0
x_16_18_2 0
x_16_19_0 0
x_16_19_1 0
x_16_19_2 0
x_16_20_0 0
x_16_20_1 0
x_16_20_2 0
x_16_21_0 0
x_16_21_1 0
x_16_21_2 0
x_16_22_0 0
x_16_22_1 0
x_16_22_2 0
x_16_23_0 0
x_16_23_1 0
x_16_23_2 0
x_16_24_0 0
x_16_24_1 0
x_16_24_2 0
x_16_25_0 0
x_16_25_1 0
x_16_25_2 0
x_16_26_0 0
x_16_26_1 0
x_16_26_2 0
x_16_27_0 0
x_16_27_1 1.0000000000000220e+00
x_16_27_2 0
x_16_28_0 0
x_16_28_1 0
x_16_28_2 0
x_16_29_0 0
x_16_29_1 0
x_16_29_2 0
x_16_30_0 0
x_16_30_1 0
x_16_30_2 0
x_17_18_0 0
x_17_18_1 0
x_17_18_2 0
x_17_19_0 9.7699626167013776e-15
x_17_19_1 1
x_17_19_2 0
x_17_20_0 0
x_17_20_1 0
x_17_20_2 0
x_17_21_0 0
x_17_21_1 0
x_17_21_2 0
x_17_22_0 0
x_17_22_1 0
x_17_22_2 0
x_17_23_0 0
x_17_23_1 0
x_17_23_2 0
x_17_24_0 0
x_17_24_1 0
x_17_24_2 0
x_17_25_0 0
x_17_25_1 0
x_17_25_2 0
x_17_26_0 0
x_17_26_1 0
x_17_26_2 0
x_17_27_0 0
x_17_27_1 0
x_17_27_2 0
x_17_28_0 -7.8825834748386114e-15
x_17_28_1 0
x_17_28_2 0
x_17_29_0 0
x_17_29_1 0
x_17_29_2 0
x_17_30_0 0
x_17_30_1 -3.1863400806741993e-14
x_17_30_2 0
x_18_19_0 0
x_18_19_1 0
x_18_19_2 0
x_18_20_0 1.0000000000000007e+00
x_18_20_1 0
x_18_20_2 0
x_18_21_0 0
x_18_21_1 0
x_18_21_2 0
x_18_22_0 0
x_18_22_1 0
x_18_22_2 0
x_18_23_0 0
x_18_23_1 0
x_18_23_2 0
x_18_24_0 0
x_18_24_1 0
x_18_24_2 0
x_18_25_0 0
x_18_25_1 0
x_18_25_2 0
x_18_26_0 0
x_18_26_1 0
x_18_26_2 0
x_18_27_0 0
x_18_27_1 0
x_18_27_2 0
x_18_28_0 0
x_18_28_1 0
x_18_28_2 0
x_18_29_0 5.4123372450476381e-15
x_18_29_1 0
x_18_29_2 0
x_18_30_0 0
x_18_30_1 0
x_18_30_2 0
x_19_20_0 0
x_19_20_1 0
x_19_20_2 0
x_19_21_0 0
x_19_21_1 0
x_19_21_2 0
x_19_22_0 0
x_19_22_1 0
x_19_22_2 0
x_19_23_0 0
x_19_23_1 0
x_19_23_2 0
x_19_24_0 0
x_19_24_1 0
x_19_24_2 0
x_19_25_0 0
x_19_25_1 0
x_19_25_2 0
x_19_26_0 0
x_19_26_1 0
x_19_26_2 0
x_19_27_0 0
x_19_27_1 0
x_19_27_2 0
x_19_28_0 0
x_19_28_1 0
x_19_28_2 0
x_19_29_0 0
x_19_29_1 0
x_19_29_2 0
x_19_30_0 0
x_19_30_1 -7.3274719625260332e-15
x_19_30_2 0
x_20_21_0 0
x_20_21_1 0
x_20_21_2 0
x_20_22_0 0
x_20_22_1 0
x_20_22_2 0
x_20_23_0 0
x_20_23_1 0
x_20_23_2 0
x_20_24_0 1
x_20_24_1 0
x_20_24_2 0
x_20_25_0 0
x_20_25_1 0
x_20_25_2 0
x_20_26_0 0
x_20_26_1 0
x_20_26_2 0
x_20_27_0 0
x_20_27_1 0
x_20_27_2 0
x_20_28_0 0
x_20_28_1 0
x_20_28_2 0
x_20_29_0 0
x_20_29_1 0
x_20_29_2 0
x_20_30_0 2.5701663020072374e-14
x_20_30_1 0
x_20_30_2 0
x_21_22_0 0
x_21_22_1 0
x_21_22_2 0
x_21_23_0 0
x_21_23_1 -2.1926904736346842e-14
x_21_23_2 0
x_21_24_0 0
x_21_24_1 0
x_21_24_2 0
x_21_25_0 0
x_21_25_1 0
x_21_25_2 0
x_21_26_0 0
x_21_26_1 0
x_21_26_2 0
x_21_27_0 0
x_21_27_1 0
x_21_27_2 0
x_21_28_0 0
x_21_28_1 0
x_21_28_2 0
x_21_29_0 0
x_21_29_1 0
x_21_29_2 0
x_21_30_0 0
x_21_30_1 0
x_21_30_2 0
x_22_23_0 0
x_22_23_1 0
x_22_23_2 0
x_22_24_0 9.9999999999994471e-01
x_22_24_1 0
x_22_24_2 0
x_22_25_0 0
x_22_25_1 0
x_22_25_2 0
x_22_26_0 1.0000000000000238e+00
x_22_26_1 0
x_22_26_2 0
x_22_27_0 0
x_22_27_1 0
x_22_27_2 0
x_22_28_0 0
x_22_28_1 0
x_22_28_2 0
x_22_29_0 0
x_22_29_1 0
x_22_29_2 0
x_22_30_0 0
x_22_30_1 0
x_22_30_2 0
x_23_24_0 0
x_23_24_1 0
x_23_24_2 0
x_23_25_0 5.4123372450476381e-15
x_23_25_1 9.9999999999999467e-01
x_23_25_2 0
x_23_26_0 0
x_23_26_1 0
x_23_26_2 0
x_23_27_0 0
x_23_27_1 1.0000000000000338e+00
x_23_27_2 0
x_23_28_0 0
x_23_28_1 0
x_23_28_2 0
x_23_29_0 0
x_23_29_1 0
x_23_29_2 0
x_23_30_0 0
x_23_30_1 0
x_23_30_2 0
x_24_25_0 0
x_24_25_1 0
x_24_25_2 0
x_24_26_0 0
x_24_26_1 0
x_24_26_2 0
x_24_27_0 0
x_24_27_1 0
x_24_27_2 0
x_24_28_0 0
x_24_28_1 0
x_24_28_2 0
x_24_29_0 0
x_24_29_1 0
x_24_29_2 0
x_24_30_0 0
x_24_30_1 0
x_24_30_2 0
x_25_26_0 0
x_25_26_1 0
x_25_26_2 0
x_25_27_0 0
x_25_27_1 0
x_25_27_2 0
x_25_28_0 0
x_25_28_1 0
x_25_28_2 0
x_25_29_0 9.71445146547012e-15
x_25_29_1 9.9999999999999467e-01
x_25_29_2 0
x_25_30_0 0
x_25_30_1 0
x_25_30_2 0
x_26_27_0 0
x_26_27_1 0
x_26_27_2 0
x_26_28_0 -3.6637359812630166e-15
x_26_28_1 1.0000000000000138e+00
x_26_28_2 0
x_26_29_0 0
x_26_29_1 0
x_26_29_2 0
x_26_30_0 3.2751579226442118e-14
x_26_30_1 -1.3766765505351941e-14
x_26_30_2 0
x_27_28_0 0
x_27_28_1 0
x_27_28_2 0
x_27_29_0 0
x_27_29_1 -3.0198066269804258e-14
x_27_29_2 0
x_27_30_0 0
x_27_30_1 0
x_27_30_2 0
x_28_29_0 0
x_28_29_1 0
x_28_29_2 0
x_28_30_0 0
x_28_30_1 1
x_28_30_2 0
x_29_30_0 0
x_29_30_1 1.0000000000000349e+00
x_29_30_2 0
